; Copyright (c) 2026 The RIINA Authors. All rights reserved.
; Auto-generated from 02_FORMAL/coq/Industries/IndustryAerospace.v (25 validations)
; Generated by scripts/generate-full-stack.py
;
; Translation Validation for IndustryAerospace
; Layer 9: Verifies compiler backend preserves formal semantics.
; Each assertion checks source IR ≡ target code for a proven property.

(set-logic QF_LIA)
(set-option :produce-models true)

; IR node representation
(declare-sort IRNode 0)
(declare-sort TargetNode 0)

; dal_le: source semantics (matches Coq)
(declare-fun source_dal_le () Bool)
(declare-fun target_dal_le () Bool)
(assert (= source_dal_le target_dal_le))

; objectives_for_dal: source semantics (matches Coq)
(declare-fun source_objectives_for_dal () Bool)
(declare-fun target_objectives_for_dal () Bool)
(assert (= source_objectives_for_dal target_objectives_for_dal))

; dal_to_nat: source semantics (matches Coq)
(declare-fun source_dal_to_nat () Bool)
(declare-fun target_dal_to_nat () Bool)
(assert (= source_dal_to_nat target_dal_to_nat))

; mcdc_required: source semantics (matches Coq)
(declare-fun source_mcdc_required () Bool)
(declare-fun target_mcdc_required () Bool)
(assert (= source_mcdc_required target_mcdc_required))

; decision_coverage_required: source semantics (matches Coq)
(declare-fun source_decision_coverage_required () Bool)
(declare-fun target_decision_coverage_required () Bool)
(assert (= source_decision_coverage_required target_decision_coverage_required))

; do178c_all_sections: source semantics (matches Coq)
(declare-fun source_do178c_all_sections () Bool)
(declare-fun target_do178c_all_sections () Bool)
(assert (= source_do178c_all_sections target_do178c_all_sections))

; formal_methods_applicable: source semantics (matches Coq)
(declare-fun source_formal_methods_applicable () Bool)
(declare-fun target_formal_methods_applicable () Bool)
(assert (= source_formal_methods_applicable target_formal_methods_applicable))

; dal_max: source semantics (matches Coq)
(declare-fun source_dal_max () Bool)
(declare-fun target_dal_max () Bool)
(assert (= source_dal_max target_dal_max))

; do_178c_compliance: translation preserves property (matches Coq: Theorem)
(declare-fun source_do_178c_compliance () Bool)
(declare-fun target_do_178c_compliance () Bool)
(assert (= source_do_178c_compliance target_do_178c_compliance))

; do_326a_security: translation preserves property (matches Coq: Theorem)
(declare-fun source_do_326a_security () Bool)
(declare-fun target_do_326a_security () Bool)
(assert (= source_do_326a_security target_do_326a_security))

; do_333_formal_methods: translation preserves property (matches Coq: Theorem)
(declare-fun source_do_333_formal_methods () Bool)
(declare-fun target_do_333_formal_methods () Bool)
(assert (= source_do_333_formal_methods target_do_333_formal_methods))

; arp4754a_development: translation preserves property (matches Coq: Theorem)
(declare-fun source_arp4754a_development () Bool)
(declare-fun target_arp4754a_development () Bool)
(assert (= source_arp4754a_development target_arp4754a_development))

; do_254_hardware: translation preserves property (matches Coq: Theorem)
(declare-fun source_do_254_hardware () Bool)
(declare-fun target_do_254_hardware () Bool)
(assert (= source_do_254_hardware target_do_254_hardware))

; dal_a_mcdc_required: translation preserves property (matches Coq: Theorem)
(declare-fun source_dal_a_mcdc_required () Bool)
(declare-fun target_dal_a_mcdc_required () Bool)
(assert (= source_dal_a_mcdc_required target_dal_a_mcdc_required))

; dal_objectives_monotone: translation preserves property (matches Coq: Theorem)
(declare-fun source_dal_objectives_monotone () Bool)
(declare-fun target_dal_objectives_monotone () Bool)
(assert (= source_dal_objectives_monotone target_dal_objectives_monotone))

; dal_le_iff_nat: translation preserves property (matches Coq: Lemma)
(declare-fun source_dal_le_iff_nat () Bool)
(declare-fun target_dal_le_iff_nat () Bool)
(assert (= source_dal_le_iff_nat target_dal_le_iff_nat))

; dal_le_refl: translation preserves property (matches Coq: Lemma)
(declare-fun source_dal_le_refl () Bool)
(declare-fun target_dal_le_refl () Bool)
(assert (= source_dal_le_refl target_dal_le_refl))

; dal_le_trans: translation preserves property (matches Coq: Lemma)
(declare-fun source_dal_le_trans () Bool)
(declare-fun target_dal_le_trans () Bool)
(assert (= source_dal_le_trans target_dal_le_trans))

; dal_le_antisym: translation preserves property (matches Coq: Lemma)
(declare-fun source_dal_le_antisym () Bool)
(declare-fun target_dal_le_antisym () Bool)
(assert (= source_dal_le_antisym target_dal_le_antisym))

; dal_le_total: translation preserves property (matches Coq: Lemma)
(declare-fun source_dal_le_total () Bool)
(declare-fun target_dal_le_total () Bool)
(assert (= source_dal_le_total target_dal_le_total))

; dal_e_bottom: translation preserves property (matches Coq: Lemma)
(declare-fun source_dal_e_bottom () Bool)
(declare-fun target_dal_e_bottom () Bool)
(assert (= source_dal_e_bottom target_dal_e_bottom))

; dal_a_max_objectives: translation preserves property (matches Coq: Theorem)
(declare-fun source_dal_a_max_objectives () Bool)
(declare-fun target_dal_a_max_objectives () Bool)
(assert (= source_dal_a_max_objectives target_dal_a_max_objectives))

; dal_e_zero_objectives: translation preserves property (matches Coq: Theorem)
(declare-fun source_dal_e_zero_objectives () Bool)
(declare-fun target_dal_e_zero_objectives () Bool)
(assert (= source_dal_e_zero_objectives target_dal_e_zero_objectives))

; objectives_strict_ordering: translation preserves property (matches Coq: Theorem)
(declare-fun source_objectives_strict_ordering () Bool)
(declare-fun target_objectives_strict_ordering () Bool)
(assert (= source_objectives_strict_ordering target_objectives_strict_ordering))

; mcdc_only_high_dal: translation preserves property (matches Coq: Theorem)
(declare-fun source_mcdc_only_high_dal () Bool)
(declare-fun target_mcdc_only_high_dal () Bool)
(assert (= source_mcdc_only_high_dal target_mcdc_only_high_dal))

; decision_coverage_implies_dal_c_or_above: translation preserves property (matches Coq: Theorem)
(declare-fun source_decision_coverage_implies_dal_c_or_above () Bool)
(declare-fun target_decision_coverage_implies_dal_c_or_above () Bool)
(assert (= source_decision_coverage_implies_dal_c_or_above target_decision_coverage_implies_dal_c_or_above))

; do178c_all_requires_plans: translation preserves property (matches Coq: Theorem)
(declare-fun source_do178c_all_requires_plans () Bool)
(declare-fun target_do178c_all_requires_plans () Bool)
(assert (= source_do178c_all_requires_plans target_do178c_all_requires_plans))

; do178c_all_requires_verification: translation preserves property (matches Coq: Theorem)
(declare-fun source_do178c_all_requires_verification () Bool)
(declare-fun target_do178c_all_requires_verification () Bool)
(assert (= source_do178c_all_requires_verification target_do178c_all_requires_verification))

; do178c_all_requires_qa: translation preserves property (matches Coq: Theorem)
(declare-fun source_do178c_all_requires_qa () Bool)
(declare-fun target_do178c_all_requires_qa () Bool)
(assert (= source_do178c_all_requires_qa target_do178c_all_requires_qa))

; formal_methods_only_high_dal: translation preserves property (matches Coq: Theorem)
(declare-fun source_formal_methods_only_high_dal () Bool)
(declare-fun target_formal_methods_only_high_dal () Bool)
(assert (= source_formal_methods_only_high_dal target_formal_methods_only_high_dal))

; dal_max_dominates_left: translation preserves property (matches Coq: Theorem)
(declare-fun source_dal_max_dominates_left () Bool)
(declare-fun target_dal_max_dominates_left () Bool)
(assert (= source_dal_max_dominates_left target_dal_max_dominates_left))

; dal_max_dominates_right: translation preserves property (matches Coq: Theorem)
(declare-fun source_dal_max_dominates_right () Bool)
(declare-fun target_dal_max_dominates_right () Bool)
(assert (= source_dal_max_dominates_right target_dal_max_dominates_right))

; dal_max_objectives: translation preserves property (matches Coq: Theorem)
(declare-fun source_dal_max_objectives () Bool)
(declare-fun target_dal_max_objectives () Bool)
(assert (= source_dal_max_objectives target_dal_max_objectives))

; Verify all translation validations are satisfiable
(check-sat)
(exit)
